
Gurobi 9.5.0 (linux64) logging started Fri Dec  8 15:49:46 2023

Set parameter LogFile to value "/lustre1/scratch/348/vsc34888/JointResearch/05.Models/06.Benchmarking/G.Representative_days_based_on_Line_Benefit_NN_OC_fy_2/RTS24_mod1_ByStages_nc20/openStarNet_RTS24_mod1_ByStages_nc20.log"
Set parameter Method to value 2
Set parameter MIPFocus to value 1
Set parameter Presolve to value 2
Set parameter RINS to value 100
Set parameter MIPGap to value 0.01
Set parameter Threads to value 36
Set parameter TimeLimit to value 259200
Set parameter IterationLimit to value 760000000
Gurobi Optimizer version 9.5.0 build v9.5.0rc5 (linux64)
Thread count: 36 physical cores, 36 logical processors, using up to 36 threads
Optimize a model with 7458 rows, 5052 columns and 20316 nonzeros
Model fingerprint: 0x92831573
Variable types: 5031 continuous, 21 integer (21 binary)
Coefficient statistics:
  Matrix range     [8e-03, 2e+03]
  Objective range  [1e+00, 1e+00]
  Bounds range     [7e-05, 2e+00]
  RHS range        [7e-05, 2e+00]
Presolve removed 4445 rows and 2553 columns
Presolve time: 0.03s
Presolved: 3013 rows, 2499 columns, 10887 nonzeros
Variable types: 2478 continuous, 21 integer (21 binary)
Found heuristic solution: objective 110.1153649
Root relaxation presolve removed 5 rows and 5 columns
Root relaxation presolved: 3008 rows, 2494 columns, 10877 nonzeros

Root barrier log...

Ordering time: 0.05s

Barrier statistics:
 AA' NZ     : 8.901e+04
 Factor NZ  : 4.191e+05 (roughly 6 MB of memory)
 Factor Ops : 9.209e+07 (less than 1 second per iteration)
 Threads    : 36

                  Objective                Residual
Iter       Primal          Dual         Primal    Dual     Compl     Time
   0   8.47594933e+05 -3.43539852e+07  6.97e+00 5.60e+02  1.65e+04     0s
   1   1.36945374e+05 -1.06233483e+07  1.10e+00 6.11e-11  2.64e+03     0s
   2   3.05990728e+04 -7.50854493e+06  1.96e-01 5.92e-10  1.23e+03     0s
   3   1.12502747e+04 -6.47313451e+05  1.04e-02 1.23e-10  9.56e+01     0s
   4   5.86161805e+03 -1.68657343e+05  9.95e-04 2.07e-11  2.48e+01     0s
   5   2.50500518e+03 -1.59585555e+04  5.59e-05 3.64e-12  2.62e+00     0s
   6   4.47538210e+02 -4.63103996e+03  8.26e-07 1.82e-12  7.20e-01     0s
   7   3.19320873e+02 -1.12709135e+03  2.58e-07 1.82e-12  2.05e-01     0s
   8   1.14161196e+02 -2.52340739e+02  2.48e-08 1.82e-12  5.20e-02     0s
   9   9.19605795e+01 -5.31706057e+01  1.41e-08 1.82e-12  2.06e-02     0s
  10   7.36741201e+01  2.62878898e+01  7.21e-09 1.82e-12  6.72e-03     0s
  11   6.39069290e+01  4.13043464e+01  3.64e-09 1.82e-12  3.21e-03     0s
  12   6.10622768e+01  4.86707414e+01  2.65e-09 1.82e-12  1.76e-03     0s
  13   5.85383582e+01  5.25491975e+01  1.66e-09 3.64e-12  8.49e-04     0s
  14   5.64498477e+01  5.39426812e+01  8.09e-10 1.82e-12  3.56e-04     0s
  15   5.53330138e+01  5.45193266e+01  2.86e-10 1.82e-12  1.15e-04     0s
  16   5.46620052e+01  5.45786020e+01  1.12e-11 3.64e-12  1.18e-05     0s
  17   5.46548642e+01  5.46492563e+01  1.46e-11 1.82e-12  7.95e-07     0s
  18   5.46536235e+01  5.46535506e+01  3.02e-11 1.82e-12  1.03e-08     0s
  19   5.46535596e+01  5.46535591e+01  1.72e-10 1.82e-12  5.89e-11     0s
  20   5.46535595e+01  5.46535595e+01  7.93e-12 1.82e-12  1.02e-14     0s

Barrier solved model in 20 iterations and 0.41 seconds (0.14 work units)
Optimal objective 5.46535595e+01


Root relaxation: objective 5.465356e+01, 531 iterations, 0.37 seconds (0.09 work units)

    Nodes    |    Current Node    |     Objective Bounds      |     Work
 Expl Unexpl |  Obj  Depth IntInf | Incumbent    BestBd   Gap | It/Node Time

     0     0   54.65356    0   14  110.11536   54.65356  50.4%     -    0s
H    0     0                      94.4599918   56.43452  40.3%     -    0s
     0     0   56.43665    0   13   94.45999   56.43665  40.3%     -    0s
H    0     0                      84.2795611   56.43665  33.0%     -    0s
     0     0   56.69413    0   14   84.27956   56.69413  32.7%     -    0s
     0     0   56.70548    0   14   84.27956   56.70548  32.7%     -    0s
     0     0   56.71260    0   14   84.27956   56.71260  32.7%     -    0s
     0     0   56.71260    0   14   84.27956   56.71260  32.7%     -    0s
     0     0   57.34626    0   18   84.27956   57.34626  32.0%     -    0s
     0     0   57.37783    0   13   84.27956   57.37783  31.9%     -    0s
     0     0   57.52172    0   13   84.27956   57.52172  31.7%     -    0s
     0     0   58.08016    0   13   84.27956   58.08016  31.1%     -    0s
     0     0   58.32795    0   14   84.27956   58.32795  30.8%     -    0s
     0     0   58.73434    0   15   84.27956   58.73434  30.3%     -    0s
     0     0   58.78619    0   15   84.27956   58.78619  30.2%     -    0s
     0     0   58.82650    0   15   84.27956   58.82650  30.2%     -    0s
     0     0   58.98975    0   15   84.27956   58.98975  30.0%     -    0s
     0     0   59.63320    0   13   84.27956   59.63320  29.2%     -    0s
     0     0   60.01481    0   13   84.27956   60.01481  28.8%     -    0s
     0     0   60.01481    0   13   84.27956   60.01481  28.8%     -    0s
H    0     0                      83.4212408   60.01481  28.1%     -    1s
     0     0   60.29619    0   12   83.42124   60.29619  27.7%     -    1s
H    0     0                      73.2394055   60.29619  17.7%     -    2s
     0     2   60.29619    0   12   73.23941   60.29619  17.7%     -    2s
H  103    96                      73.1101912   60.45546  17.3%  89.9    3s
  1095   267   65.35899    9   10   73.11019   62.88314  14.0%  55.0    5s

Cutting planes:
  Gomory: 7
  Implied bound: 37
  MIR: 81
  Relax-and-lift: 12

Explored 2970 nodes (130452 simplex iterations) in 6.75 seconds (6.82 work units)
Thread count was 36 (of 36 available processors)

Solution count 6: 73.1102 73.2394 83.4212 ... 110.115

Optimal solution found (tolerance 1.00e-02)
Best objective 7.311019124981e+01, best bound 7.311019124981e+01, gap 0.0000%

Gurobi 9.5.0 (linux64) logging started Fri Dec  8 15:49:54 2023

Set parameter LogFile to value "/lustre1/scratch/348/vsc34888/JointResearch/05.Models/06.Benchmarking/G.Representative_days_based_on_Line_Benefit_NN_OC_fy_2/RTS24_mod1_ByStages_nc20/openStarNet_RTS24_mod1_ByStages_nc20.log"
Set parameter Method to value 2
Set parameter MIPFocus to value 1
Set parameter Presolve to value 2
Set parameter RINS to value 100
Set parameter MIPGap to value 0.01
Set parameter Threads to value 36
Set parameter TimeLimit to value 259200
Set parameter IterationLimit to value 760000000
No parameters matching 'relax_integrality' found
Gurobi Optimizer version 9.5.0 build v9.5.0rc5 (linux64)
Thread count: 36 physical cores, 36 logical processors, using up to 36 threads
Optimize a model with 7458 rows, 5031 columns and 18531 nonzeros
Model fingerprint: 0xed624468
Coefficient statistics:
  Matrix range     [8e-03, 2e+03]
  Objective range  [1e+00, 1e+00]
  Bounds range     [7e-05, 2e+00]
  RHS range        [7e-05, 2e+01]
Presolve removed 6199 rows and 2789 columns
Presolve time: 0.01s
Presolved: 1259 rows, 2263 columns, 5621 nonzeros

Ordering time: 0.00s

Barrier statistics:
 AA' NZ     : 3.082e+03
 Factor NZ  : 1.017e+04 (roughly 1 MB of memory)
 Factor Ops : 1.274e+05 (less than 1 second per iteration)
 Threads    : 1

                  Objective                Residual
Iter       Primal          Dual         Primal    Dual     Compl     Time
   0   1.27315042e+06 -1.40005002e+07  7.42e+00 1.92e+03  3.23e+04     0s
   1   8.81152301e+04 -9.28413618e+06  4.57e-01 2.26e-11  3.88e+03     0s
   2   4.80523447e+04 -3.03134810e+06  1.80e-01 2.48e-11  1.10e+03     0s
   3   2.08965742e+04 -5.58880243e+05  6.68e-03 1.55e-11  1.58e+02     0s
   4   1.08389506e+04 -4.90717553e+04  5.64e-05 1.42e-10  1.59e+01     0s
   5   1.54520410e+03 -4.87880949e+03  5.57e-06 7.28e-12  1.71e+00     0s
   6   3.42620344e+02 -1.35782333e+03  7.94e-09 3.64e-12  4.52e-01     0s
   7   2.17612040e+02 -2.36649108e+02  1.15e-09 3.64e-12  1.21e-01     0s
   8   1.00386424e+02  2.63792664e+01  5.22e-11 3.64e-12  1.97e-02     0s
   9   7.85976434e+01  6.46247730e+01  8.92e-12 3.64e-12  3.72e-03     0s
  10   7.46951755e+01  7.07292052e+01  2.41e-12 3.64e-12  1.05e-03     0s
  11   7.36855203e+01  7.21798019e+01  2.32e-12 3.64e-12  4.00e-04     0s
  12   7.31666989e+01  7.28297395e+01  9.98e-12 3.64e-12  8.96e-05     0s
  13   7.31185860e+01  7.30903906e+01  2.14e-12 3.64e-12  7.50e-06     0s
  14   7.31104881e+01  7.31098453e+01  4.67e-12 3.64e-12  1.71e-07     0s
  15   7.31101931e+01  7.31101878e+01  4.89e-12 3.64e-12  1.43e-09     0s
  16   7.31101912e+01  7.31101912e+01  1.42e-12 3.64e-12  2.42e-15     0s

Barrier solved model in 16 iterations and 0.03 seconds (0.02 work units)
Optimal objective 7.31101912e+01

Crossover log...

     278 DPushes remaining with DInf 0.0000000e+00                 0s
       0 DPushes remaining with DInf 0.0000000e+00                 0s

      66 PPushes remaining with PInf 0.0000000e+00                 0s
       0 PPushes remaining with PInf 0.0000000e+00                 0s

  Push phase complete: Pinf 0.0000000e+00, Dinf 3.1379738e-13      0s

Iteration    Objective       Primal Inf.    Dual Inf.      Time
      71    7.3110191e+01   0.000000e+00   0.000000e+00      0s

Use crossover to convert LP symmetric solution to basic solution...
Crossover log...

      57 PPushes remaining with PInf 0.0000000e+00                 0s
       0 PPushes remaining with PInf 0.0000000e+00                 0s

  Push phase complete: Pinf 0.0000000e+00, Dinf 3.0324371e-13      0s

Iteration    Objective       Primal Inf.    Dual Inf.      Time
     131    7.3110191e+01   0.000000e+00   0.000000e+00      0s

Solved in 131 iterations and 0.04 seconds (0.03 work units)
Optimal objective  7.311019125e+01

Gurobi 9.5.0 (linux64) logging started Fri Dec  8 20:31:36 2023

Set parameter LogFile to value "/lustre1/scratch/348/vsc34888/JointResearch/05.Models/06.Benchmarking/G.Representative_days_based_on_Line_Benefit_NN_OC_fy_2/RTS24_mod1_ByStages_nc20/openStarNet_RTS24_mod1_ByStages_nc20.log"
Set parameter Method to value 2
Set parameter MIPFocus to value 1
Set parameter Presolve to value 2
Set parameter RINS to value 100
Set parameter MIPGap to value 0.01
Set parameter Threads to value 36
Set parameter TimeLimit to value 259200
Set parameter IterationLimit to value 760000000
Gurobi Optimizer version 9.5.0 build v9.5.0rc5 (linux64)
Thread count: 36 physical cores, 36 logical processors, using up to 36 threads
Optimize a model with 7458 rows, 5042 columns and 20289 nonzeros
Model fingerprint: 0x3f456f51
Variable types: 5021 continuous, 21 integer (21 binary)
Coefficient statistics:
  Matrix range     [8e-03, 2e+03]
  Objective range  [1e+00, 1e+00]
  Bounds range     [3e-05, 2e+00]
  RHS range        [3e-05, 2e+00]
Presolve removed 4443 rows and 2546 columns
Presolve time: 0.03s
Presolved: 3015 rows, 2496 columns, 10887 nonzeros
Variable types: 2475 continuous, 21 integer (21 binary)
Found heuristic solution: objective 151.0636421
Root relaxation presolve removed 4 rows and 4 columns
Root relaxation presolved: 3011 rows, 2492 columns, 10879 nonzeros

Root barrier log...

Ordering time: 0.05s

Barrier statistics:
 AA' NZ     : 8.901e+04
 Factor NZ  : 4.101e+05 (roughly 6 MB of memory)
 Factor Ops : 8.786e+07 (less than 1 second per iteration)
 Threads    : 36

                  Objective                Residual
Iter       Primal          Dual         Primal    Dual     Compl     Time
   0   1.98966304e+06 -4.39057798e+07  1.62e+01 4.74e+02  3.98e+04     0s
   1   5.69478849e+05 -1.94339862e+07  4.58e+00 1.43e-10  9.94e+03     0s
   2   6.96737052e+04 -1.26415976e+07  5.26e-01 1.78e-10  2.46e+03     0s
   3   2.06047075e+04 -1.94563551e+06  8.75e-02 1.99e-10  3.20e+02     0s
   4   1.03699023e+04 -1.36702824e+05  3.46e-03 1.85e-11  2.11e+01     0s
   5   3.10341295e+03 -2.48422145e+04  1.22e-04 1.04e-11  3.97e+00     0s
   6   8.05062808e+02 -4.36702228e+03  1.67e-05 4.69e-12  7.34e-01     0s
   7   5.10662771e+02 -1.18137396e+03  7.22e-06 1.74e-12  2.40e-01     0s
   8   2.65896424e+02 -3.13158017e+02  2.46e-06 1.82e-12  8.21e-02     0s
   9   1.69961470e+02 -9.40799893e+01  1.05e-06 3.64e-12  3.75e-02     0s
  10   9.26975127e+01  8.06885752e+00  1.44e-07 1.82e-12  1.20e-02     0s
  11   7.96567101e+01  5.75573705e+01  5.11e-08 3.64e-12  3.13e-03     0s
  12   7.58332537e+01  6.54471096e+01  2.87e-08 5.46e-12  1.47e-03     0s
  13   7.28154874e+01  6.84516727e+01  9.08e-09 3.64e-12  6.19e-04     0s
  14   7.19759054e+01  7.01125324e+01  3.67e-09 9.09e-13  2.64e-04     0s
  15   7.17091423e+01  7.10203710e+01  2.11e-09 1.82e-12  9.77e-05     0s
  16   7.15529023e+01  7.12181303e+01  1.20e-09 3.64e-12  4.75e-05     0s
  17   7.13756297e+01  7.13168118e+01  1.77e-10 1.82e-12  8.34e-06     0s
  18   7.13440814e+01  7.13403712e+01  4.46e-12 3.64e-12  5.26e-07     0s
  19   7.13431574e+01  7.13429571e+01  3.91e-12 1.82e-12  2.84e-08     0s
  20   7.13431329e+01  7.13430694e+01  4.98e-12 1.82e-12  9.01e-09     0s
  21   7.13431321e+01  7.13431194e+01  4.28e-12 3.64e-12  1.80e-09     0s
  22   7.13431317e+01  7.13431313e+01  3.99e-11 1.82e-12  5.28e-11     0s

Barrier solved model in 22 iterations and 0.41 seconds (0.15 work units)
Optimal objective 7.13431317e+01


Root relaxation: objective 7.134313e+01, 440 iterations, 0.37 seconds (0.09 work units)

    Nodes    |    Current Node    |     Objective Bounds      |     Work
 Expl Unexpl |  Obj  Depth IntInf | Incumbent    BestBd   Gap | It/Node Time

     0     0   71.34313    0   16  151.06364   71.34313  52.8%     -    0s
H    0     0                     130.4932011   73.78342  43.5%     -    0s
     0     0   74.00536    0   14  130.49320   74.00536  43.3%     -    0s
H    0     0                     113.7085181   74.00536  34.9%     -    0s
     0     0   74.85081    0   13  113.70852   74.85081  34.2%     -    0s
     0     0   74.85081    0   15  113.70852   74.85081  34.2%     -    0s
     0     0   74.85081    0   15  113.70852   74.85081  34.2%     -    0s
H    0     0                     109.0752403   74.85081  31.4%     -    0s
     0     0   75.79509    0   11  109.07524   75.79509  30.5%     -    0s
     0     0   76.51225    0   12  109.07524   76.51225  29.9%     -    0s
     0     0   77.99223    0   12  109.07524   77.99223  28.5%     -    0s
     0     0   78.36743    0   16  109.07524   78.36743  28.2%     -    0s
H    0     0                     108.4655431   78.38399  27.7%     -    0s
     0     0   78.38399    0   16  108.46554   78.38399  27.7%     -    0s
H    0     0                     103.7040687   78.38399  24.4%     -    0s
     0     0   78.38399    0   16  103.70407   78.38399  24.4%     -    0s
     0     0   78.60045    0   16  103.70407   78.60045  24.2%     -    0s
H    0     0                      99.8219264   79.05605  20.8%     -    0s
     0     0   79.07332    0   15   99.82193   79.07332  20.8%     -    0s
     0     0   79.13455    0   16   99.82193   79.13455  20.7%     -    0s
     0     0   79.13455    0   16   99.82193   79.13455  20.7%     -    0s
     0     0   79.13455    0   16   99.82193   79.13455  20.7%     -    0s
     0     0   79.15667    0   16   99.82193   79.15667  20.7%     -    0s
H    0     0                      95.3369293   79.15667  17.0%     -    3s
     0     2   79.15667    0   15   95.33693   79.15667  17.0%     -    3s
H   14    16                      94.5859867   79.15667  16.3%  84.4    3s
H   22    32                      93.9206099   79.15667  15.7%  91.6    3s
H  100   114                      93.8176168   79.45646  15.3%   112    4s
H  109   114                      93.7288733   79.67513  15.0%   114    4s
H  309   174                      93.5453841   80.85679  13.6%  84.0    4s
   905   283     cutoff   17        93.54538   82.58342  11.7%  66.8    5s
H 1438   333                      93.4473355   82.68046  11.5%  59.7    6s

Cutting planes:
  Gomory: 10
  Implied bound: 41
  MIR: 137
  Relax-and-lift: 11

Explored 3196 nodes (153055 simplex iterations) in 6.42 seconds (6.74 work units)
Thread count was 36 (of 36 available processors)

Solution count 10: 93.4473 93.5454 93.7289 ... 108.466

Optimal solution found (tolerance 1.00e-02)
Best objective 9.344733554488e+01, best bound 9.316102917192e+01, gap 0.3064%

Gurobi 9.5.0 (linux64) logging started Fri Dec  8 20:31:43 2023

Set parameter LogFile to value "/lustre1/scratch/348/vsc34888/JointResearch/05.Models/06.Benchmarking/G.Representative_days_based_on_Line_Benefit_NN_OC_fy_2/RTS24_mod1_ByStages_nc20/openStarNet_RTS24_mod1_ByStages_nc20.log"
Set parameter Method to value 2
Set parameter MIPFocus to value 1
Set parameter Presolve to value 2
Set parameter RINS to value 100
Set parameter MIPGap to value 0.01
Set parameter Threads to value 36
Set parameter TimeLimit to value 259200
Set parameter IterationLimit to value 760000000
No parameters matching 'relax_integrality' found
Gurobi Optimizer version 9.5.0 build v9.5.0rc5 (linux64)
Thread count: 36 physical cores, 36 logical processors, using up to 36 threads
Optimize a model with 7458 rows, 5021 columns and 18504 nonzeros
Model fingerprint: 0xa4bff7d3
Coefficient statistics:
  Matrix range     [8e-03, 2e+03]
  Objective range  [1e+00, 1e+00]
  Bounds range     [3e-05, 2e+00]
  RHS range        [3e-05, 3e+01]
Presolve removed 6251 rows and 2844 columns
Presolve time: 0.01s
Presolved: 1207 rows, 2189 columns, 5369 nonzeros

Ordering time: 0.00s

Barrier statistics:
 AA' NZ     : 3.049e+03
 Factor NZ  : 1.078e+04 (roughly 1 MB of memory)
 Factor Ops : 1.414e+05 (less than 1 second per iteration)
 Threads    : 1

                  Objective                Residual
Iter       Primal          Dual         Primal    Dual     Compl     Time
   0   1.21158560e+07 -6.54086173e+07  3.68e+01 7.34e+03  6.63e+05     0s
   1   7.60250387e+05 -6.10176797e+07  2.27e+00 6.57e+03  5.41e+04     0s
   2   1.41136441e+05 -2.71071267e+07  3.95e-01 2.55e+02  1.15e+04     0s
   3   4.28542972e+04 -9.32407258e+06  8.97e-02 1.41e+01  2.97e+03     0s
   4   3.08642333e+04 -3.41069688e+06  4.42e-02 4.17e-10  1.04e+03     0s
   5   2.03259573e+04 -9.65913365e+05  1.84e-03 1.81e-10  2.62e+02     0s
   6   1.22652900e+04 -2.13637692e+05  9.62e-07 1.48e-10  5.95e+01     0s
   7   4.15598613e+03 -2.49482511e+04  7.91e-10 9.75e-11  7.67e+00     0s
   8   7.15047351e+02 -2.60183462e+03  2.90e-11 2.91e-11  8.73e-01     0s
   9   3.28351920e+02 -8.28322144e+02  3.99e-11 1.46e-11  3.05e-01     0s
  10   2.26123594e+02 -4.10791470e+02  2.33e-11 2.91e-11  1.68e-01     0s
  11   1.57380589e+02 -7.17149829e+01  2.15e-11 5.82e-11  6.03e-02     0s
  12   1.16656770e+02  2.07798752e+01  7.15e-12 5.82e-11  2.52e-02     0s
  13   9.88670605e+01  7.06716742e+01  1.41e-11 1.46e-11  7.42e-03     0s
  14   9.39439108e+01  8.90782173e+01  1.21e-11 2.91e-11  1.28e-03     0s
  15   9.35391301e+01  9.30793232e+01  2.35e-11 2.91e-11  1.21e-04     0s
  16   9.34776564e+01  9.33795590e+01  2.38e-11 1.46e-11  2.58e-05     0s
  17   9.34542558e+01  9.34406620e+01  2.94e-11 1.46e-11  3.58e-06     0s
  18   9.34483472e+01  9.34471719e+01  1.18e-09 2.91e-11  3.09e-07     0s
  19   9.34473367e+01  9.34473327e+01  2.36e-09 1.46e-11  1.06e-09     0s
  20   9.34473357e+01  9.34473355e+01  2.24e-07 1.46e-11  1.06e-12     0s
  21   9.34473355e+01  9.34473355e+01  1.61e-09 1.46e-11  2.52e-15     0s

Barrier solved model in 21 iterations and 0.04 seconds (0.03 work units)
Optimal objective 9.34473355e+01

Crossover log...

     273 DPushes remaining with DInf 0.0000000e+00                 0s
       0 DPushes remaining with DInf 0.0000000e+00                 0s

      90 PPushes remaining with PInf 0.0000000e+00                 0s
       0 PPushes remaining with PInf 0.0000000e+00                 0s

  Push phase complete: Pinf 0.0000000e+00, Dinf 1.4878689e-12      0s

Iteration    Objective       Primal Inf.    Dual Inf.      Time
      96    9.3447336e+01   0.000000e+00   0.000000e+00      0s

Use crossover to convert LP symmetric solution to basic solution...
Crossover log...

       0 DPushes remaining with DInf 0.0000000e+00                 0s

      76 PPushes remaining with PInf 0.0000000e+00                 0s
       0 PPushes remaining with PInf 0.0000000e+00                 0s

  Push phase complete: Pinf 0.0000000e+00, Dinf 7.6905149e-13      0s

Iteration    Objective       Primal Inf.    Dual Inf.      Time
     177    9.3447336e+01   0.000000e+00   0.000000e+00      0s

Solved in 177 iterations and 0.05 seconds (0.03 work units)
Optimal objective  9.344733554e+01

Gurobi 9.5.0 (linux64) logging started Sat Dec  9 17:34:35 2023

Set parameter LogFile to value "/lustre1/scratch/348/vsc34888/JointResearch/05.Models/06.Benchmarking/G.Representative_days_based_on_Line_Benefit_NN_OC_fy_2/RTS24_mod1_ByStages_nc20/openStarNet_RTS24_mod1_ByStages_nc20.log"
Set parameter Method to value 2
Set parameter MIPFocus to value 1
Set parameter Presolve to value 2
Set parameter RINS to value 100
Set parameter MIPGap to value 0.01
Set parameter Threads to value 36
Set parameter TimeLimit to value 259200
Set parameter IterationLimit to value 760000000
Gurobi Optimizer version 9.5.0 build v9.5.0rc5 (linux64)
Thread count: 36 physical cores, 36 logical processors, using up to 36 threads
Optimize a model with 7458 rows, 5053 columns and 20321 nonzeros
Model fingerprint: 0x07bb31c8
Variable types: 5032 continuous, 21 integer (21 binary)
Coefficient statistics:
  Matrix range     [8e-03, 2e+03]
  Objective range  [1e+00, 1e+00]
  Bounds range     [3e-05, 2e+00]
  RHS range        [3e-05, 2e+00]
Presolve removed 4442 rows and 2552 columns
Presolve time: 0.03s
Presolved: 3016 rows, 2501 columns, 10892 nonzeros
Variable types: 2480 continuous, 21 integer (21 binary)
Found heuristic solution: objective 122.5918432
Root relaxation presolve removed 6 rows and 6 columns
Root relaxation presolved: 3010 rows, 2495 columns, 10880 nonzeros

Root barrier log...

Ordering time: 0.04s

Barrier statistics:
 AA' NZ     : 8.901e+04
 Factor NZ  : 4.241e+05 (roughly 6 MB of memory)
 Factor Ops : 9.582e+07 (less than 1 second per iteration)
 Threads    : 36

                  Objective                Residual
Iter       Primal          Dual         Primal    Dual     Compl     Time
   0   2.80220707e+06 -4.64034880e+07  2.23e+01 4.74e+02  5.83e+04     0s
   1   8.88479696e+05 -2.65183324e+07  7.00e+00 4.72e+01  1.70e+04     0s
   2   8.38693023e+04 -1.37230511e+07  6.37e-01 1.82e+00  2.86e+03     0s
   3   2.12173705e+04 -2.36765532e+06  9.54e-02 1.81e-10  3.93e+02     0s
   4   1.13285241e+04 -3.84319095e+05  5.92e-03 1.70e-11  5.69e+01     0s
   5   4.99214783e+03 -7.86423129e+04  4.33e-13 7.87e-12  1.19e+01     0s
   6   1.40742391e+03 -1.16069571e+04  3.31e-13 5.30e-12  1.85e+00     0s
   7   4.17570003e+02 -3.09923368e+03  2.87e-13 3.64e-12  4.99e-01     0s
   8   2.20424292e+02 -7.90245037e+02  2.72e-13 1.82e-12  1.43e-01     0s
   9   1.48449600e+02 -1.91054442e+02  1.27e-13 3.64e-12  4.81e-02     0s
  10   9.55598309e+01 -2.94308630e+01  9.86e-14 1.82e-12  1.77e-02     0s
  11   6.59440679e+01  2.64246967e+01  5.71e-13 1.82e-12  5.60e-03     0s
  12   5.97478421e+01  4.43429869e+01  1.24e-12 1.82e-12  2.18e-03     0s
  13   5.77448500e+01  4.92481731e+01  1.22e-12 3.64e-12  1.20e-03     0s
  14   5.56249884e+01  5.18092431e+01  1.13e-11 1.82e-12  5.41e-04     0s
  15   5.51466551e+01  5.31157355e+01  6.93e-12 1.82e-12  2.88e-04     0s
  16   5.46848567e+01  5.36946568e+01  7.49e-12 1.82e-12  1.40e-04     0s
  17   5.44913579e+01  5.41455696e+01  2.79e-11 3.64e-12  4.90e-05     0s
  18   5.44285592e+01  5.42597717e+01  3.51e-11 3.64e-12  2.39e-05     0s
  19   5.43465544e+01  5.42988060e+01  7.19e-11 1.82e-12  6.77e-06     0s
  20   5.43277308e+01  5.43184142e+01  1.04e-10 3.64e-12  1.32e-06     0s
  21   5.43238025e+01  5.43220647e+01  9.20e-11 3.64e-12  2.46e-07     0s
  22   5.43229810e+01  5.43226052e+01  4.86e-11 3.64e-12  5.33e-08     0s
  23   5.43227592e+01  5.43227109e+01  3.26e-11 3.64e-12  6.85e-09     0s
  24   5.43227227e+01  5.43227214e+01  3.81e-11 3.64e-12  1.80e-10     0s
  25   5.43227217e+01  5.43227217e+01  1.80e-11 3.64e-12  1.80e-13     0s

Barrier solved model in 25 iterations and 0.40 seconds (0.16 work units)
Optimal objective 5.43227217e+01


Root relaxation: objective 5.432272e+01, 453 iterations, 0.36 seconds (0.10 work units)

    Nodes    |    Current Node    |     Objective Bounds      |     Work
 Expl Unexpl |  Obj  Depth IntInf | Incumbent    BestBd   Gap | It/Node Time

     0     0   54.32272    0   17  122.59184   54.32272  55.7%     -    0s
H    0     0                     106.0536655   57.38393  45.9%     -    0s
     0     0   57.38393    0   15  106.05367   57.38393  45.9%     -    0s
H    0     0                      93.1614847   57.38393  38.4%     -    0s
H    0     0                      87.8899489   59.15556  32.7%     -    0s
     0     0   59.15556    0   17   87.88995   59.15556  32.7%     -    0s
     0     0   59.15556    0   17   87.88995   59.15556  32.7%     -    0s
     0     0   59.15556    0   17   87.88995   59.15556  32.7%     -    0s
     0     0   59.15556    0   17   87.88995   59.15556  32.7%     -    0s
     0     0   60.19650    0   14   87.88995   60.19650  31.5%     -    0s
     0     0   60.65766    0   15   87.88995   60.65766  31.0%     -    0s
     0     0   60.91467    0   15   87.88995   60.91467  30.7%     -    0s
     0     0   61.83552    0   13   87.88995   61.83552  29.6%     -    0s
     0     0   62.05202    0   13   87.88995   62.05202  29.4%     -    0s
     0     0   62.06679    0   13   87.88995   62.06679  29.4%     -    0s
     0     0   62.10073    0   12   87.88995   62.10073  29.3%     -    0s
     0     0   62.83416    0   12   87.88995   62.83416  28.5%     -    0s
H    0     0                      78.9392488   62.90192  20.3%     -    0s
     0     0   63.13287    0   15   78.93925   63.13287  20.0%     -    0s
H    0     0                      78.6807850   63.13287  19.8%     -    3s
     0     2   63.13287    0   15   78.68079   63.13287  19.8%     -    3s
H   14    16                      78.5349205   63.13287  19.6%   115    3s
H   99   113                      78.1666952   63.75382  18.4%   113    4s
H  129   113                      78.0443166   63.75382  18.3%   105    4s
   715   229     cutoff   19        78.04432   64.50212  17.4%  58.2    5s

Cutting planes:
  Gomory: 7
  Implied bound: 46
  MIR: 112
  Relax-and-lift: 15

Explored 3088 nodes (136712 simplex iterations) in 6.41 seconds (7.14 work units)
Thread count was 36 (of 36 available processors)

Solution count 9: 78.0443 78.1667 78.5349 ... 122.592

Optimal solution found (tolerance 1.00e-02)
Best objective 7.804431662761e+01, best bound 7.769001645731e+01, gap 0.4540%

Gurobi 9.5.0 (linux64) logging started Sat Dec  9 17:34:42 2023

Set parameter LogFile to value "/lustre1/scratch/348/vsc34888/JointResearch/05.Models/06.Benchmarking/G.Representative_days_based_on_Line_Benefit_NN_OC_fy_2/RTS24_mod1_ByStages_nc20/openStarNet_RTS24_mod1_ByStages_nc20.log"
Set parameter Method to value 2
Set parameter MIPFocus to value 1
Set parameter Presolve to value 2
Set parameter RINS to value 100
Set parameter MIPGap to value 0.01
Set parameter Threads to value 36
Set parameter TimeLimit to value 259200
Set parameter IterationLimit to value 760000000
No parameters matching 'relax_integrality' found
Gurobi Optimizer version 9.5.0 build v9.5.0rc5 (linux64)
Thread count: 36 physical cores, 36 logical processors, using up to 36 threads
Optimize a model with 7458 rows, 5032 columns and 18536 nonzeros
Model fingerprint: 0xee7824c6
Coefficient statistics:
  Matrix range     [8e-03, 2e+03]
  Objective range  [1e+00, 1e+00]
  Bounds range     [3e-05, 2e+00]
  RHS range        [3e-05, 3e+01]
Presolve removed 6269 rows and 2876 columns
Presolve time: 0.01s
Presolved: 1189 rows, 2177 columns, 5114 nonzeros

Ordering time: 0.00s

Barrier statistics:
 AA' NZ     : 2.730e+03
 Factor NZ  : 9.747e+03 (roughly 1 MB of memory)
 Factor Ops : 1.166e+05 (less than 1 second per iteration)
 Threads    : 1

                  Objective                Residual
Iter       Primal          Dual         Primal    Dual     Compl     Time
   0   1.04070870e+06 -1.51954518e+07  5.31e+00 2.02e+03  2.72e+04     0s
   1   8.45338417e+04 -9.15469718e+06  3.86e-01 2.87e-11  3.71e+03     0s
   2   4.10908105e+04 -2.92091936e+06  1.14e-01 3.27e-11  9.70e+02     0s
   3   2.10284359e+04 -2.42440714e+05  2.77e-03 2.55e-11  7.15e+01     0s
   4   8.34061983e+03 -3.13410206e+04  6.21e-06 3.27e-11  1.06e+01     0s
   5   1.87827223e+03 -3.20938025e+03  7.11e-07 7.28e-12  1.36e+00     0s
   6   4.70599701e+02 -1.46801173e+03  6.69e-08 3.64e-12  5.19e-01     0s
   7   2.35257188e+02 -4.10724887e+02  1.31e-08 7.28e-12  1.73e-01     0s
   8   1.39893570e+02 -1.22255534e+02  3.49e-09 3.64e-12  7.02e-02     0s
   9   9.73683113e+01  3.30729847e+01  7.71e-10 3.64e-12  1.72e-02     0s
  10   8.10719629e+01  6.43835579e+01  6.96e-11 3.64e-12  4.47e-03     0s
  11   7.85619200e+01  7.48784010e+01  6.93e-12 3.64e-12  9.86e-04     0s
  12   7.81779517e+01  7.72347147e+01  9.57e-12 7.28e-12  2.52e-04     0s
  13   7.80696248e+01  7.79229260e+01  1.11e-11 3.64e-12  3.93e-05     0s
  14   7.80471536e+01  7.80405732e+01  2.27e-11 1.09e-11  1.76e-06     0s
  15   7.80445856e+01  7.80442181e+01  1.15e-11 3.64e-12  9.84e-08     0s
  16   7.80443184e+01  7.80443133e+01  1.28e-11 7.28e-12  1.39e-09     0s
  17   7.80443166e+01  7.80443166e+01  2.03e-11 7.28e-12  1.39e-12     0s

Barrier solved model in 17 iterations and 0.02 seconds (0.02 work units)
Optimal objective 7.80443166e+01

Crossover log...

     270 DPushes remaining with DInf 0.0000000e+00                 0s
       0 DPushes remaining with DInf 0.0000000e+00                 0s

      67 PPushes remaining with PInf 0.0000000e+00                 0s
       0 PPushes remaining with PInf 0.0000000e+00                 0s

  Push phase complete: Pinf 0.0000000e+00, Dinf 7.4111363e-13      0s

Iteration    Objective       Primal Inf.    Dual Inf.      Time
      73    7.8044317e+01   0.000000e+00   0.000000e+00      0s

Use crossover to convert LP symmetric solution to basic solution...
Crossover log...

       0 DPushes remaining with DInf 0.0000000e+00                 0s

      52 PPushes remaining with PInf 0.0000000e+00                 0s
       0 PPushes remaining with PInf 0.0000000e+00                 0s

  Push phase complete: Pinf 0.0000000e+00, Dinf 1.1783080e-12      0s

Iteration    Objective       Primal Inf.    Dual Inf.      Time
     132    7.8044317e+01   0.000000e+00   0.000000e+00      0s

Solved in 132 iterations and 0.03 seconds (0.03 work units)
Optimal objective  7.804431663e+01
